/* Objective function */
min: 400 + 100 r0_1 + 200 r0_2 + 1000 + 300 r1_1 + 600 r1_2
     + 1400 + 500 r2_1 + 1000 r2_2 + 300 + 100 r3_1 + 200 r3_2
     + 1000 + 800 r5_1 + 1600 r5_2 + 800 + 90 r6_1 + 180 r6_2
     + 900 + 300 + 1600 + 500 r10_1 + 1000 r10_2
     + 1400 + 300 r11_2 + 600 r11_2;

/* Variable bounds */

r0_1 <= 0.5;
r0_2 <= 0.5;
r1_1 <= 1;
r1_2 <= 1;
r2_1 <= 1;
r2_2 <= 3;
r3_1 <= 0.5;
r3_2 <= 0.5;
r5_1 <= 0.5;
r5_2 <= 0.5;
r6_1 <= 1;
r6_2 <= 1;
r10_1 <= 0.5;
r10_2 <= 0.5;
r11_1 <= 1;
r11_2 <= 1;

t0 = 0;
t6 = 0;

t1 >= t0 + 4 - r0_1 - r0_2;

t2 >= t0 + 4 - r0_1 - r0_2;
t2 >= t1 + 6 - r1_1 - r1_2;
t2 >= t7 + 6;

t3 >= t2 + 7 - r2_1 - r2_2;
t3 >= t5 + 4 - r5_1 - r5_2;

t5 >= t0 + 4 - r0_1 - r0_2;
t5 >= t7 + 6;
t5 >= t10 + 8 - r10_1 - r10_2;

t7 >= t6 + 5 - r6_1 - r6_2;

t9 >= t7 + 6;
t9 >= t10 + 8 - r10_1 - r10_2;
t9 >= t11 + 7 - r11_1 - r11_2;

t10 >= t6 + 5 - r6_1 - r6_2;

t11 >= t10 + 8 - r10_1 - r10_2;

tf >= t3 + 2 - r3_1 - r3_2;
tf >= t5 + 4 - r5_1 - r5_2;
tf >= t9 + 2;

tf = 22 - y;
y = 4;

/*Int y, t0, t1, t2, t3, t5, t6, t7, t9, t10, t11, tf,
    r0_1, r0_2, r1_1, r1_2, r2_1, r2_2, r3_1, r3_2,
    r5_1, r5_2, r6_2, r10_1, r10_2, r11_1, r11_2, r6_1;